Optimize a model with 0 rows, 10 columns and 0 nonzeros
Coefficient statistics:
  Matrix range     [0e+00, 0e+00]
  Objective range  [4e+00, 1e+01]
  Bounds range     [0e+00, 0e+00]
  RHS range        [0e+00, 0e+00]
Presolve time: 0.01s

Solved in 0 iterations and 0.01 seconds
Unbounded model
Optimize a model with 0 rows, 10 columns and 0 nonzeros
Coefficient statistics:
  Matrix range     [0e+00, 0e+00]
  Objective range  [4e+00, 1e+01]
  Bounds range     [0e+00, 0e+00]
  RHS range        [0e+00, 0e+00]
Presolve time: 0.01s

Solved in 0 iterations and 0.01 seconds
Unbounded model
Optimize a model with 0 rows, 10 columns and 0 nonzeros
Coefficient statistics:
  Matrix range     [0e+00, 0e+00]
  Objective range  [4e+00, 1e+01]
  Bounds range     [0e+00, 0e+00]
  RHS range        [0e+00, 0e+00]
Presolve time: 0.01s

Solved in 0 iterations and 0.01 seconds
Unbounded model
Optimize a model with 0 rows, 10 columns and 0 nonzeros
Coefficient statistics:
  Matrix range     [0e+00, 0e+00]
  Objective range  [4e+00, 1e+01]
  Bounds range     [0e+00, 0e+00]
  RHS range        [0e+00, 0e+00]
Presolve time: 0.01s

Solved in 0 iterations and 0.01 seconds
Unbounded model
Optimize a model with 0 rows, 10 columns and 0 nonzeros
Coefficient statistics:
  Matrix range     [0e+00, 0e+00]
  Objective range  [4e+00, 1e+01]
  Bounds range     [0e+00, 0e+00]
  RHS range        [0e+00, 0e+00]
Presolve time: 0.01s

Solved in 0 iterations and 0.01 seconds
Unbounded model
Optimize a model with 0 rows, 10 columns and 0 nonzeros
Coefficient statistics:
  Matrix range     [0e+00, 0e+00]
  Objective range  [4e+00, 1e+01]
  Bounds range     [0e+00, 0e+00]
  RHS range        [0e+00, 0e+00]
Presolve time: 0.01s

Solved in 0 iterations and 0.01 seconds
Unbounded model
Optimize a model with 0 rows, 10 columns and 0 nonzeros
Coefficient statistics:
  Matrix range     [0e+00, 0e+00]
  Objective range  [4e+00, 1e+01]
  Bounds range     [0e+00, 0e+00]
  RHS range        [0e+00, 0e+00]
Presolve time: 0.01s

Solved in 0 iterations and 0.01 seconds
Unbounded model
Optimize a model with 0 rows, 10 columns and 0 nonzeros
Coefficient statistics:
  Matrix range     [0e+00, 0e+00]
  Objective range  [4e+00, 1e+01]
  Bounds range     [0e+00, 0e+00]
  RHS range        [0e+00, 0e+00]
Presolve time: 0.01s

Solved in 0 iterations and 0.01 seconds
Unbounded model
Optimize a model with 1 rows, 10 columns and 2 nonzeros
Coefficient statistics:
  Matrix range     [1e+00, 1e+00]
  Objective range  [4e+00, 1e+01]
  Bounds range     [0e+00, 0e+00]
  RHS range        [3e+04, 3e+04]
Presolve time: 0.01s

Solved in 0 iterations and 0.01 seconds
Infeasible or unbounded model
Optimize a model with 1 rows, 10 columns and 2 nonzeros
Coefficient statistics:
  Matrix range     [1e+00, 1e+00]
  Objective range  [4e+00, 1e+01]
  Bounds range     [0e+00, 0e+00]
  RHS range        [3e+04, 3e+04]
Presolve time: 0.01s

Solved in 0 iterations and 0.01 seconds
Infeasible or unbounded model
Optimize a model with 1 rows, 10 columns and 2 nonzeros
Coefficient statistics:
  Matrix range     [1e+00, 1e+00]
  Objective range  [4e+00, 1e+01]
  Bounds range     [0e+00, 0e+00]
  RHS range        [3e+04, 3e+04]
Presolve time: 0.01s

Solved in 0 iterations and 0.01 seconds
Infeasible or unbounded model
Optimize a model with 1 rows, 10 columns and 2 nonzeros
Coefficient statistics:
  Matrix range     [1e+00, 1e+00]
  Objective range  [4e+00, 1e+01]
  Bounds range     [0e+00, 0e+00]
  RHS range        [3e+04, 3e+04]
Presolve time: 0.01s

Solved in 0 iterations and 0.01 seconds
Infeasible or unbounded model
Optimize a model with 5 rows, 10 columns and 10 nonzeros
Coefficient statistics:
  Matrix range     [1e+00, 1e+00]
  Objective range  [4e+00, 1e+01]
  Bounds range     [0e+00, 0e+00]
  RHS range        [2e+04, 3e+04]
Presolve time: 0.01s

Solved in 0 iterations and 0.01 seconds
Infeasible or unbounded model
Optimize a model with 5 rows, 10 columns and 10 nonzeros
Coefficient statistics:
  Matrix range     [1e+00, 1e+00]
  Objective range  [4e+00, 1e+01]
  Bounds range     [0e+00, 0e+00]
  RHS range        [2e+04, 3e+04]
Presolve time: 0.01s

Solved in 0 iterations and 0.01 seconds
Infeasible or unbounded model
Optimize a model with 5 rows, 10 columns and 10 nonzeros
Coefficient statistics:
  Matrix range     [1e+00, 1e+00]
  Objective range  [4e+00, 1e+01]
  Bounds range     [0e+00, 0e+00]
  RHS range        [2e+04, 3e+04]
Presolve time: 0.01s

Solved in 0 iterations and 0.01 seconds
Infeasible or unbounded model
Optimize a model with 5 rows, 10 columns and 10 nonzeros
Coefficient statistics:
  Matrix range     [1e+00, 1e+00]
  Objective range  [4e+00, 1e+01]
  Bounds range     [0e+00, 0e+00]
  RHS range        [2e+04, 3e+04]
Presolve time: 0.01s

Solved in 0 iterations and 0.01 seconds
Infeasible or unbounded model
Optimize a model with 7 rows, 10 columns and 14 nonzeros
Coefficient statistics:
  Matrix range     [1e+00, 1e+00]
  Objective range  [4e+00, 1e+01]
  Bounds range     [0e+00, 0e+00]
  RHS range        [2e+04, 5e+04]
Presolve time: 0.01s

Solved in 0 iterations and 0.01 seconds
Infeasible or unbounded model
Optimize a model with 7 rows, 10 columns and 14 nonzeros
Coefficient statistics:
  Matrix range     [1e+00, 1e+00]
  Objective range  [4e+00, 1e+01]
  Bounds range     [0e+00, 0e+00]
  RHS range        [2e+04, 5e+04]
Presolve time: 0.01s

Solved in 0 iterations and 0.01 seconds
Infeasible or unbounded model
Optimize a model with 7 rows, 10 columns and 14 nonzeros
Coefficient statistics:
  Matrix range     [1e+00, 1e+00]
  Objective range  [4e+00, 1e+01]
  Bounds range     [0e+00, 0e+00]
  RHS range        [2e+04, 5e+04]
Presolve time: 0.01s

Solved in 0 iterations and 0.01 seconds
Infeasible or unbounded model
Optimize a model with 8 rows, 10 columns and 24 nonzeros
Coefficient statistics:
  Matrix range     [1e+00, 1e+00]
  Objective range  [4e+00, 1e+01]
  Bounds range     [0e+00, 0e+00]
  RHS range        [2e+04, 1e+05]
Presolve removed 2 rows and 3 columns
Presolve time: 0.01s
Presolved: 6 rows, 7 columns, 17 nonzeros

Iteration    Objective       Primal Inf.    Dual Inf.      Time
       0    1.4944930e+06   1.939750e+04   0.000000e+00      0s
       3    9.5850000e+05   0.000000e+00   0.000000e+00      0s

Solved in 3 iterations and 0.02 seconds
Optimal objective  9.585000000e+05
Optimize a model with 9 rows, 10 columns and 26 nonzeros
Coefficient statistics:
  Matrix range     [4e-01, 1e+00]
  Objective range  [4e+00, 1e+01]
  Bounds range     [0e+00, 0e+00]
  RHS range        [2e+04, 1e+05]
Presolve removed 2 rows and 2 columns
Presolve time: 0.01s
Presolved: 7 rows, 8 columns, 25 nonzeros

Iteration    Objective       Primal Inf.    Dual Inf.      Time
       0    1.2700000e+06   1.562500e+04   0.000000e+00      0s
       5    9.5421429e+05   0.000000e+00   0.000000e+00      0s

Solved in 5 iterations and 0.02 seconds
Optimal objective  9.542142857e+05
Optimize a model with 9 rows, 10 columns and 26 nonzeros
Coefficient statistics:
  Matrix range     [4e-01, 1e+00]
  Objective range  [4e+00, 1e+01]
  Bounds range     [0e+00, 0e+00]
  RHS range        [2e+04, 1e+05]
Presolve removed 2 rows and 2 columns
Presolve time: 0.01s
Presolved: 7 rows, 8 columns, 25 nonzeros

Iteration    Objective       Primal Inf.    Dual Inf.      Time
       0    1.2700000e+06   1.562500e+04   0.000000e+00      0s
       5    9.5421429e+05   0.000000e+00   0.000000e+00      0s

Solved in 5 iterations and 0.01 seconds
Optimal objective  9.542142857e+05
Optimize a model with 14 rows, 10 columns and 36 nonzeros
Coefficient statistics:
  Matrix range     [4e-01, 1e+00]
  Objective range  [4e+00, 1e+01]
  Bounds range     [0e+00, 0e+00]
  RHS range        [2e+04, 1e+05]
Presolve removed 7 rows and 2 columns
Presolve time: 0.01s
Presolved: 7 rows, 8 columns, 25 nonzeros

Iteration    Objective       Primal Inf.    Dual Inf.      Time
       0    1.2700000e+06   1.562500e+04   0.000000e+00      0s
       5    9.5421429e+05   0.000000e+00   0.000000e+00      0s

Solved in 5 iterations and 0.02 seconds
Optimal objective  9.542142857e+05
Optimize a model with 14 rows, 10 columns and 36 nonzeros
Coefficient statistics:
  Matrix range     [4e-01, 1e+00]
  Objective range  [4e+00, 1e+01]
  Bounds range     [0e+00, 0e+00]
  RHS range        [2e+04, 1e+05]
Presolve removed 7 rows and 2 columns
Presolve time: 0.01s
Presolved: 7 rows, 8 columns, 25 nonzeros

Iteration    Objective       Primal Inf.    Dual Inf.      Time
       0    1.2700000e+06   1.562500e+04   0.000000e+00      0s
       5    9.5421429e+05   0.000000e+00   0.000000e+00      0s

Solved in 5 iterations and 0.02 seconds
Optimal objective  9.542142857e+05
Optimize a model with 14 rows, 10 columns and 36 nonzeros
Coefficient statistics:
  Matrix range     [4e-01, 1e+00]
  Objective range  [4e+00, 1e+01]
  Bounds range     [0e+00, 0e+00]
  RHS range        [2e+04, 1e+05]
Presolve removed 7 rows and 2 columns
Presolve time: 0.01s
Presolved: 7 rows, 8 columns, 25 nonzeros

Iteration    Objective       Primal Inf.    Dual Inf.      Time
       0    1.2700000e+06   1.562500e+04   0.000000e+00      0s
       5    9.5421429e+05   0.000000e+00   0.000000e+00      0s

Solved in 5 iterations and 0.02 seconds
Optimal objective  9.542142857e+05
Optimize a model with 14 rows, 10 columns and 36 nonzeros
Coefficient statistics:
  Matrix range     [4e-01, 1e+00]
  Objective range  [4e+00, 1e+01]
  Bounds range     [0e+00, 0e+00]
  RHS range        [2e+04, 1e+05]
Presolve removed 7 rows and 2 columns
Presolve time: 0.01s
Presolved: 7 rows, 8 columns, 25 nonzeros

Iteration    Objective       Primal Inf.    Dual Inf.      Time
       0    1.2700000e+06   1.562500e+04   0.000000e+00      0s
       5    9.5421429e+05   0.000000e+00   0.000000e+00      0s

Solved in 5 iterations and 0.02 seconds
Optimal objective  9.542142857e+05
Optimize a model with 20 rows, 10 columns and 44 nonzeros
Coefficient statistics:
  Matrix range     [4e-01, 1e+00]
  Objective range  [4e+00, 1e+01]
  Bounds range     [0e+00, 0e+00]
  RHS range        [2e+04, 1e+05]
Presolve removed 2 rows and 0 columns
Presolve time: 0.01s

Solved in 0 iterations and 0.02 seconds
Infeasible or unbounded model
Optimize a model with 20 rows, 10 columns and 44 nonzeros
Coefficient statistics:
  Matrix range     [4e-01, 1e+00]
  Objective range  [4e+00, 1e+01]
  Bounds range     [0e+00, 0e+00]
  RHS range        [2e+04, 1e+05]
Presolve removed 2 rows and 0 columns
Presolve time: 0.02s

Solved in 0 iterations and 0.02 seconds
Infeasible or unbounded model
Optimize a model with 20 rows, 10 columns and 44 nonzeros
Coefficient statistics:
  Matrix range     [4e-01, 1e+00]
  Objective range  [4e+00, 1e+01]
  Bounds range     [0e+00, 0e+00]
  RHS range        [2e+04, 1e+05]
Presolve removed 2 rows and 0 columns
Presolve time: 0.01s

Solved in 0 iterations and 0.01 seconds
Infeasible or unbounded model
Optimize a model with 20 rows, 10 columns and 44 nonzeros
Coefficient statistics:
  Matrix range     [4e-01, 1e+00]
  Objective range  [4e+00, 1e+01]
  Bounds range     [0e+00, 0e+00]
  RHS range        [2e+04, 1e+05]
Presolve removed 2 rows and 0 columns
Presolve time: 0.01s

Solved in 0 iterations and 0.01 seconds
Infeasible or unbounded model
Optimize a model with 20 rows, 10 columns and 44 nonzeros
Coefficient statistics:
  Matrix range     [4e-01, 1e+00]
  Objective range  [4e+00, 1e+01]
  Bounds range     [0e+00, 0e+00]
  RHS range        [2e+04, 1e+05]
Presolve removed 15 rows and 3 columns
Presolve time: 0.01s
Presolved: 5 rows, 7 columns, 19 nonzeros

Iteration    Objective       Primal Inf.    Dual Inf.      Time
       0    1.2700000e+06   1.562500e+04   0.000000e+00      0s
       4    9.5821429e+05   0.000000e+00   0.000000e+00      0s

Solved in 4 iterations and 0.02 seconds
Optimal objective  9.582142857e+05
Optimize a model with 20 rows, 10 columns and 44 nonzeros
Coefficient statistics:
  Matrix range     [4e-01, 1e+00]
  Objective range  [4e+00, 1e+01]
  Bounds range     [0e+00, 0e+00]
  RHS range        [2e+04, 1e+05]
Presolve removed 15 rows and 3 columns
Presolve time: 0.01s
Presolved: 5 rows, 7 columns, 19 nonzeros

Iteration    Objective       Primal Inf.    Dual Inf.      Time
       0    1.2700000e+06   1.562500e+04   0.000000e+00      0s
       4    9.5821429e+05   0.000000e+00   0.000000e+00      0s

Solved in 4 iterations and 0.02 seconds
Optimal objective  9.582142857e+05
Optimize a model with 20 rows, 10 columns and 44 nonzeros
Coefficient statistics:
  Matrix range     [4e-01, 1e+00]
  Objective range  [4e+00, 1e+01]
  Bounds range     [0e+00, 0e+00]
  RHS range        [2e+04, 1e+05]
Presolve removed 15 rows and 3 columns
Presolve time: 0.01s
Presolved: 5 rows, 7 columns, 19 nonzeros

Iteration    Objective       Primal Inf.    Dual Inf.      Time
       0    1.2700000e+06   1.562500e+04   0.000000e+00      0s
       4    9.5821429e+05   0.000000e+00   0.000000e+00      0s

Solved in 4 iterations and 0.02 seconds
Optimal objective  9.582142857e+05
Optimize a model with 20 rows, 10 columns and 44 nonzeros
Coefficient statistics:
  Matrix range     [4e-01, 1e+00]
  Objective range  [4e+00, 1e+01]
  Bounds range     [0e+00, 0e+00]
  RHS range        [2e+04, 1e+05]
Presolve removed 15 rows and 3 columns
Presolve time: 0.01s
Presolved: 5 rows, 7 columns, 19 nonzeros

Iteration    Objective       Primal Inf.    Dual Inf.      Time
       0    1.2700000e+06   1.562500e+04   0.000000e+00      0s
       4    9.5821429e+05   0.000000e+00   0.000000e+00      0s

Solved in 4 iterations and 0.03 seconds
Optimal objective  9.582142857e+05
Optimize a model with 20 rows, 10 columns and 44 nonzeros
Coefficient statistics:
  Matrix range     [4e-01, 1e+00]
  Objective range  [4e+00, 1e+01]
  Bounds range     [0e+00, 0e+00]
  RHS range        [2e+04, 1e+05]
Presolve removed 15 rows and 3 columns
Presolve time: 0.02s
Presolved: 5 rows, 7 columns, 19 nonzeros

Iteration    Objective       Primal Inf.    Dual Inf.      Time
       0    1.2700000e+06   1.562500e+04   0.000000e+00      0s
       4    9.5821429e+05   0.000000e+00   0.000000e+00      0s

Solved in 4 iterations and 0.03 seconds
Optimal objective  9.582142857e+05
Optimize a model with 20 rows, 10 columns and 44 nonzeros
Coefficient statistics:
  Matrix range     [4e-01, 1e+00]
  Objective range  [4e+00, 1e+01]
  Bounds range     [0e+00, 0e+00]
  RHS range        [2e+04, 1e+05]
Presolve removed 15 rows and 3 columns
Presolve time: 0.02s
Presolved: 5 rows, 7 columns, 19 nonzeros

Iteration    Objective       Primal Inf.    Dual Inf.      Time
       0    1.2700000e+06   1.562500e+04   0.000000e+00      0s
       4    9.5821429e+05   0.000000e+00   0.000000e+00      0s

Solved in 4 iterations and 0.02 seconds
Optimal objective  9.582142857e+05
Optimize a model with 20 rows, 10 columns and 44 nonzeros
Coefficient statistics:
  Matrix range     [4e-01, 1e+00]
  Objective range  [4e+00, 1e+01]
  Bounds range     [0e+00, 0e+00]
  RHS range        [2e+04, 1e+05]
Presolve removed 15 rows and 3 columns
Presolve time: 0.01s
Presolved: 5 rows, 7 columns, 19 nonzeros

Iteration    Objective       Primal Inf.    Dual Inf.      Time
       0    1.2700000e+06   1.562500e+04   0.000000e+00      0s
       4    9.5821429e+05   0.000000e+00   0.000000e+00      0s

Solved in 4 iterations and 0.02 seconds
Optimal objective  9.582142857e+05
Optimize a model with 20 rows, 10 columns and 44 nonzeros
Coefficient statistics:
  Matrix range     [4e-01, 1e+00]
  Objective range  [4e+00, 1e+01]
  Bounds range     [0e+00, 0e+00]
  RHS range        [2e+04, 1e+05]
Presolve removed 15 rows and 3 columns
Presolve time: 0.01s
Presolved: 5 rows, 7 columns, 19 nonzeros

Iteration    Objective       Primal Inf.    Dual Inf.      Time
       0    1.2700000e+06   1.562500e+04   0.000000e+00      0s
       4    9.5821429e+05   0.000000e+00   0.000000e+00      0s

Solved in 4 iterations and 0.02 seconds
Optimal objective  9.582142857e+05
Optimize a model with 20 rows, 10 columns and 44 nonzeros
Coefficient statistics:
  Matrix range     [4e-01, 1e+00]
  Objective range  [4e+00, 1e+01]
  Bounds range     [0e+00, 0e+00]
  RHS range        [2e+04, 1e+05]
Presolve removed 15 rows and 3 columns
Presolve time: 0.01s
Presolved: 5 rows, 7 columns, 19 nonzeros

Iteration    Objective       Primal Inf.    Dual Inf.      Time
       0    1.2700000e+06   1.562500e+04   0.000000e+00      0s
       4    9.5821429e+05   0.000000e+00   0.000000e+00      0s

Solved in 4 iterations and 0.02 seconds
Optimal objective  9.582142857e+05
Optimize a model with 20 rows, 10 columns and 44 nonzeros
Coefficient statistics:
  Matrix range     [4e-01, 1e+00]
  Objective range  [4e+00, 1e+01]
  Bounds range     [0e+00, 0e+00]
  RHS range        [2e+04, 1e+05]
Presolve removed 15 rows and 3 columns
Presolve time: 0.01s
Presolved: 5 rows, 7 columns, 19 nonzeros

Iteration    Objective       Primal Inf.    Dual Inf.      Time
       0    1.2700000e+06   1.562500e+04   0.000000e+00      0s
       4    9.5821429e+05   0.000000e+00   0.000000e+00      0s

Solved in 4 iterations and 0.02 seconds
Optimal objective  9.582142857e+05
Optimize a model with 20 rows, 10 columns and 44 nonzeros
Coefficient statistics:
  Matrix range     [4e-01, 1e+00]
  Objective range  [4e+00, 1e+01]
  Bounds range     [0e+00, 0e+00]
  RHS range        [2e+04, 1e+05]
Presolve removed 15 rows and 3 columns
Presolve time: 0.01s
Presolved: 5 rows, 7 columns, 19 nonzeros

Iteration    Objective       Primal Inf.    Dual Inf.      Time
       0    1.2700000e+06   1.562500e+04   0.000000e+00      0s
       4    9.5821429e+05   0.000000e+00   0.000000e+00      0s

Solved in 4 iterations and 0.02 seconds
Optimal objective  9.582142857e+05
Optimize a model with 20 rows, 10 columns and 44 nonzeros
Coefficient statistics:
  Matrix range     [4e-01, 1e+00]
  Objective range  [4e+00, 1e+01]
  Bounds range     [0e+00, 0e+00]
  RHS range        [2e+04, 1e+05]
Presolve removed 15 rows and 3 columns
Presolve time: 0.01s
Presolved: 5 rows, 7 columns, 19 nonzeros

Iteration    Objective       Primal Inf.    Dual Inf.      Time
       0    1.2700000e+06   1.562500e+04   0.000000e+00      0s
       4    9.5821429e+05   0.000000e+00   0.000000e+00      0s

Solved in 4 iterations and 0.02 seconds
Optimal objective  9.582142857e+05
Optimize a model with 20 rows, 10 columns and 44 nonzeros
Coefficient statistics:
  Matrix range     [4e-01, 1e+00]
  Objective range  [4e+00, 1e+01]
  Bounds range     [0e+00, 0e+00]
  RHS range        [2e+04, 1e+05]
Presolve removed 15 rows and 3 columns
Presolve time: 0.01s
Presolved: 5 rows, 7 columns, 19 nonzeros

Iteration    Objective       Primal Inf.    Dual Inf.      Time
       0    1.2700000e+06   1.562500e+04   0.000000e+00      0s
       4    9.5821429e+05   0.000000e+00   0.000000e+00      0s

Solved in 4 iterations and 0.02 seconds
Optimal objective  9.582142857e+05
Optimize a model with 20 rows, 10 columns and 44 nonzeros
Coefficient statistics:
  Matrix range     [4e-01, 1e+00]
  Objective range  [4e+00, 1e+01]
  Bounds range     [0e+00, 0e+00]
  RHS range        [2e+04, 1e+05]
Presolve removed 15 rows and 3 columns
Presolve time: 0.01s
Presolved: 5 rows, 7 columns, 19 nonzeros

Iteration    Objective       Primal Inf.    Dual Inf.      Time
       0    1.2700000e+06   1.562500e+04   0.000000e+00      0s
       4    9.5821429e+05   0.000000e+00   0.000000e+00      0s

Solved in 4 iterations and 0.02 seconds
Optimal objective  9.582142857e+05
Optimize a model with 20 rows, 10 columns and 44 nonzeros
Coefficient statistics:
  Matrix range     [4e-01, 1e+00]
  Objective range  [4e+00, 1e+01]
  Bounds range     [0e+00, 0e+00]
  RHS range        [2e+04, 1e+05]
Presolve removed 15 rows and 3 columns
Presolve time: 0.01s
Presolved: 5 rows, 7 columns, 19 nonzeros

Iteration    Objective       Primal Inf.    Dual Inf.      Time
       0    1.2700000e+06   1.562500e+04   0.000000e+00      0s
       4    9.5821429e+05   0.000000e+00   0.000000e+00      0s

Solved in 4 iterations and 0.02 seconds
Optimal objective  9.582142857e+05
Optimize a model with 20 rows, 10 columns and 44 nonzeros
Coefficient statistics:
  Matrix range     [4e-01, 1e+00]
  Objective range  [4e+00, 1e+01]
  Bounds range     [0e+00, 0e+00]
  RHS range        [2e+04, 1e+05]
Presolve removed 15 rows and 3 columns
Presolve time: 0.01s
Presolved: 5 rows, 7 columns, 19 nonzeros

Iteration    Objective       Primal Inf.    Dual Inf.      Time
       0    1.2700000e+06   1.562500e+04   0.000000e+00      0s
       4    9.5821429e+05   0.000000e+00   0.000000e+00      0s

Solved in 4 iterations and 0.02 seconds
Optimal objective  9.582142857e+05
Optimize a model with 20 rows, 10 columns and 44 nonzeros
Coefficient statistics:
  Matrix range     [4e-01, 1e+00]
  Objective range  [4e+00, 1e+01]
  Bounds range     [0e+00, 0e+00]
  RHS range        [2e+04, 1e+05]
Presolve removed 15 rows and 3 columns
Presolve time: 0.01s
Presolved: 5 rows, 7 columns, 19 nonzeros

Iteration    Objective       Primal Inf.    Dual Inf.      Time
       0    1.2700000e+06   1.562500e+04   0.000000e+00      0s
       4    9.5821429e+05   0.000000e+00   0.000000e+00      0s

Solved in 4 iterations and 0.02 seconds
Optimal objective  9.582142857e+05
Optimize a model with 20 rows, 10 columns and 44 nonzeros
Coefficient statistics:
  Matrix range     [4e-01, 1e+00]
  Objective range  [4e+00, 1e+01]
  Bounds range     [0e+00, 0e+00]
  RHS range        [2e+04, 1e+05]
Presolve removed 15 rows and 3 columns
Presolve time: 0.01s
Presolved: 5 rows, 7 columns, 19 nonzeros

Iteration    Objective       Primal Inf.    Dual Inf.      Time
       0    1.2700000e+06   1.562500e+04   0.000000e+00      0s
       4    9.5821429e+05   0.000000e+00   0.000000e+00      0s

Solved in 4 iterations and 0.01 seconds
Optimal objective  9.582142857e+05
Optimize a model with 20 rows, 10 columns and 44 nonzeros
Coefficient statistics:
  Matrix range     [4e-01, 1e+00]
  Objective range  [4e+00, 1e+01]
  Bounds range     [0e+00, 0e+00]
  RHS range        [2e+04, 1e+05]
Presolve removed 15 rows and 3 columns
Presolve time: 0.03s
Presolved: 5 rows, 7 columns, 19 nonzeros

Iteration    Objective       Primal Inf.    Dual Inf.      Time
       0    1.2700000e+06   1.562500e+04   0.000000e+00      0s
       4    9.5821429e+05   0.000000e+00   0.000000e+00      0s

Solved in 4 iterations and 0.03 seconds
Optimal objective  9.582142857e+05
Optimize a model with 20 rows, 10 columns and 44 nonzeros
Coefficient statistics:
  Matrix range     [4e-01, 1e+00]
  Objective range  [4e+00, 1e+01]
  Bounds range     [0e+00, 0e+00]
  RHS range        [2e+04, 1e+05]
Presolve removed 15 rows and 3 columns
Presolve time: 0.01s
Presolved: 5 rows, 7 columns, 19 nonzeros

Iteration    Objective       Primal Inf.    Dual Inf.      Time
       0    1.2700000e+06   1.562500e+04   0.000000e+00      0s
       4    9.5821429e+05   0.000000e+00   0.000000e+00      0s

Solved in 4 iterations and 0.02 seconds
Optimal objective  9.582142857e+05
Optimize a model with 20 rows, 10 columns and 44 nonzeros
Coefficient statistics:
  Matrix range     [4e-01, 1e+00]
  Objective range  [4e+00, 1e+01]
  Bounds range     [0e+00, 0e+00]
  RHS range        [2e+04, 1e+05]
Presolve removed 15 rows and 3 columns
Presolve time: 0.01s
Presolved: 5 rows, 7 columns, 19 nonzeros

Iteration    Objective       Primal Inf.    Dual Inf.      Time
       0    1.2700000e+06   1.562500e+04   0.000000e+00      0s
       4    9.5821429e+05   0.000000e+00   0.000000e+00      0s

Solved in 4 iterations and 0.02 seconds
Optimal objective  9.582142857e+05
Optimize a model with 20 rows, 10 columns and 44 nonzeros
Coefficient statistics:
  Matrix range     [4e-01, 1e+00]
  Objective range  [4e+00, 1e+01]
  Bounds range     [0e+00, 0e+00]
  RHS range        [2e+04, 1e+05]
Presolve removed 15 rows and 3 columns
Presolve time: 0.01s
Presolved: 5 rows, 7 columns, 19 nonzeros

Iteration    Objective       Primal Inf.    Dual Inf.      Time
       0    1.2700000e+06   1.562500e+04   0.000000e+00      0s
       4    9.5821429e+05   0.000000e+00   0.000000e+00      0s

Solved in 4 iterations and 0.02 seconds
Optimal objective  9.582142857e+05
